NAME : amz3017.79814_75314.tour
COMMENT : Cost = 79814_75314
COMMENT : Found by LKH-AMZ [Keld Helsgaun] Sun May 11 14:21:12 2025
COMMENT : TW viol.: 0 #: 0
TYPE : TOUR
DIMENSION : 95
TOUR_SECTION
47
88
42
25
57
86
3
36
95
44
26
27
12
58
78
67
38
49
73
16
24
80
37
35
55
32
34
5
18
22
69
14
8
60
11
71
76
53
56
84
40
33
52
51
68
31
2
10
1
79
21
48
82
92
87
83
7
4
28
13
62
66
23
93
77
41
74
43
85
29
15
45
54
91
19
46
20
17
94
6
89
39
59
50
70
63
75
65
81
9
61
64
90
72
30
-1
EOF
